(declare-fun var0 () String)
(assert (str.in.re var0 (re.++ (re.union (re.union (str.to.re "++") (str.to.re ",,,")) (re.* (str.to.re "-"))) (re.++ (re.+ (re.union (str.to.re ")") (str.to.re "***"))) (re.++ (re.union (re.* (str.to.re "'")) (re.+ (str.to.re "((("))) (re.++ (re.+ (re.union (str.to.re "%") (str.to.re "&&&"))) (re.++ (re.union (re.union (str.to.re "!") (str.to.re """")) (re.union (str.to.re "#") (str.to.re "$$"))) (re.++ (re.union (re.union (str.to.re "WWW") (str.to.re "X")) (re.union (str.to.re "YYY") (str.to.re "ZZZ"))) (re.++ (re.union (re.* (str.to.re "U")) (re.* (str.to.re "VVV"))) (re.++ (re.* (re.+ (str.to.re "TTT"))) (re.++ (re.* (re.+ (str.to.re "SS"))) (re.++ (re.union (re.* (str.to.re "Q")) (re.+ (str.to.re "RR"))) (re.++ (re.+ (re.union (str.to.re "OO") (str.to.re "P"))) (re.++ (re.+ (re.union (str.to.re "M") (str.to.re "NNN"))) (re.++ (re.* (re.* (str.to.re "L"))) (re.++ (re.+ (re.union (str.to.re "JJ") (str.to.re "KKK"))) (re.++ (re.* (re.* (str.to.re "I"))) (re.++ (re.+ (re.+ (str.to.re "HH"))) (re.++ (re.+ (re.* (str.to.re "GGG"))) (re.++ (re.* (re.union (str.to.re "E") (str.to.re "F"))) (re.++ (re.union (re.union (str.to.re "B") (str.to.re "CC")) (re.* (str.to.re "D"))) (re.++ (re.* (re.* (str.to.re "AA"))) (re.++ (re.+ (re.union (str.to.re "yyy") (str.to.re "zz"))) (re.++ (re.+ (re.union (str.to.re "www") (str.to.re "x"))) (re.++ (re.+ (re.* (str.to.re "vv"))) (re.++ (re.+ (re.union (str.to.re "tt") (str.to.re "uuu"))) (re.++ (re.+ (re.union (str.to.re "r") (str.to.re "ss"))) (re.++ (re.+ (re.* (str.to.re "qqq"))) (re.++ (re.* (re.+ (str.to.re "pp"))) (re.++ (re.* (re.* (str.to.re "o"))) (re.++ (re.+ (re.union (str.to.re "mmm") (str.to.re "nnn"))) (re.++ (re.+ (re.+ (str.to.re "lll"))) (re.++ (re.* (re.union (str.to.re "jjj") (str.to.re "k"))) (re.++ (re.union (re.+ (str.to.re "hh")) (re.+ (str.to.re "iii"))) (re.++ (re.+ (re.union (str.to.re "fff") (str.to.re "gg"))) (re.++ (re.+ (re.union (str.to.re "dd") (str.to.re "e"))) (re.++ (re.union (re.+ (str.to.re "bb")) (re.* (str.to.re "c"))) (re.++ (re.union (re.union (str.to.re "888") (str.to.re "9")) (re.+ (str.to.re "aa"))) (re.++ (re.* (re.union (str.to.re "6") (str.to.re "7"))) (re.++ (re.* (re.+ (str.to.re "5"))) (re.++ (re.union (re.+ (str.to.re "22")) (re.union (str.to.re "3") (str.to.re "444"))) (re.++ (re.union (re.* (str.to.re "~")) (re.union (str.to.re "000") (str.to.re "111"))) (re.++ (re.union (re.union (str.to.re "{{") (str.to.re "|||")) (re.+ (str.to.re "}}}"))) (re.++ (re.+ (re.* (str.to.re "``"))) (re.++ (re.union (re.+ (str.to.re "^^")) (re.* (str.to.re "_"))) (re.++ (re.union (re.* (str.to.re "[[")) (re.union (str.to.re "\\\\\\") (str.to.re "]]"))) (re.++ (re.union (re.* (str.to.re "??")) (re.* (str.to.re "@@"))) (re.++ (re.union (re.+ (str.to.re "<")) (re.union (str.to.re "===") (str.to.re ">>>"))) (re.++ (re.union (re.union (str.to.re "..") (str.to.re "///")) (re.union (str.to.re ":::") (str.to.re ";"))) (re.++ (re.* (re.* (str.to.re "---"))) (re.++ (re.union (re.* (str.to.re "*")) (re.union (str.to.re "+") (str.to.re ","))) (re.++ (re.+ (re.union (str.to.re "(((") (str.to.re ")))"))) (re.++ (re.* (re.+ (str.to.re "'"))) (re.++ (re.* (re.+ (str.to.re "&"))) (re.++ (re.+ (re.union (str.to.re "$$") (str.to.re "%%"))) (re.++ (re.+ (re.+ (str.to.re "##"))) (re.++ (re.* (re.union (str.to.re "!!") (str.to.re """"""""))) (re.++ (re.union (re.union (str.to.re "XXX") (str.to.re "YYY")) (re.+ (str.to.re "ZZ"))) (re.++ (re.+ (re.union (str.to.re "VV") (str.to.re "WWW"))) (re.++ (re.* (re.* (str.to.re "UUU"))) (re.++ (re.* (re.+ (str.to.re "TTT"))) (re.++ (re.* (re.* (str.to.re "S"))) (re.++ (re.union (re.* (str.to.re "P")) (re.union (str.to.re "Q") (str.to.re "RR"))) (re.++ (re.+ (re.* (str.to.re "OOO"))) (re.++ (re.* (re.* (str.to.re "NN"))) (re.++ (re.* (re.* (str.to.re "MM"))) (re.++ (re.* (re.* (str.to.re "L"))) (re.++ (re.union (re.* (str.to.re "I")) (re.union (str.to.re "J") (str.to.re "K"))) (re.++ (re.union (re.union (str.to.re "EEE") (str.to.re "FFF")) (re.union (str.to.re "G") (str.to.re "H"))) (re.++ (re.+ (re.+ (str.to.re "DD"))) (re.++ (re.* (re.+ (str.to.re "CCC"))) (re.++ (re.+ (re.+ (str.to.re "BBB"))) (re.++ (re.+ (re.union (str.to.re "z") (str.to.re "AA"))) (re.++ (re.union (re.* (str.to.re "xx")) (re.* (str.to.re "yyy"))) (re.++ (re.* (re.union (str.to.re "vv") (str.to.re "w"))) (re.++ (re.* (re.union (str.to.re "t") (str.to.re "uu"))) (re.++ (re.* (re.+ (str.to.re "s"))) (re.++ (re.+ (re.+ (str.to.re "r"))) (re.++ (re.union (re.+ (str.to.re "p")) (re.+ (str.to.re "qq"))) (re.++ (re.+ (re.union (str.to.re "nn") (str.to.re "o"))) (re.++ (re.* (re.+ (str.to.re "mm"))) (re.++ (re.+ (re.* (str.to.re "lll"))) (re.++ (re.+ (re.+ (str.to.re "k"))) (re.++ (re.union (re.+ (str.to.re "ii")) (re.+ (str.to.re "jj"))) (re.++ (re.union (re.+ (str.to.re "ff")) (re.union (str.to.re "gg") (str.to.re "hhh"))) (re.++ (re.union (re.union (str.to.re "bbb") (str.to.re "c")) (re.union (str.to.re "ddd") (str.to.re "ee"))) (re.++ (re.+ (re.* (str.to.re "a"))) (re.++ (re.+ (re.union (str.to.re "8") (str.to.re "9"))) (re.++ (re.union (re.+ (str.to.re "66")) (re.* (str.to.re "77"))) (re.++ (re.* (re.* (str.to.re "5"))) (re.++ (re.* (re.union (str.to.re "3") (str.to.re "4"))) (re.++ (re.* (re.+ (str.to.re "222"))) (re.++ (re.+ (re.* (str.to.re "11"))) (re.+ (re.+ (str.to.re "0"))))))))))))))))))))))))))))))))))))))))))))))))))))))))))))))))))))))))))))))))))))))))))))))))
(check-sat)